c Random 7-CNF over 30 variables and 240 clauses
c Generated with `cnfgen`
c (C) 2012-2016 Massimo Lauria <lauria.massimo@gmail.com>
c https://massimolauria.github.io/cnfgen
c
c COMMAND LINE: cnfgen --output tmp-7-30-240.dimacs --output-format dimacs randkcnf 7 30 240
c
c sdimacs generated by gen-sdimacs
c
p cnf 30 240
e 16 17 18 19 20 21 22 23 24 25 26 27 28 29 30 0
r 0.37 1 2 3 4 5 6 7 8 9 10 11 12 13 14 15 0
1 -6 8 -14 22 -28 30 0
-3 8 -11 -15 19 21 27 0
5 12 13 14 18 22 -29 0
-9 -10 -11 15 -16 21 29 0
1 7 9 12 -20 22 -26 0
-3 7 10 20 -22 -23 30 0
-2 4 10 -11 -18 25 29 0
6 10 11 20 -21 27 -29 0
-1 -6 7 -15 -23 25 27 0
3 5 -8 17 -19 -24 -27 0
-1 -2 5 -6 15 -26 -28 0
4 -10 -16 -22 23 -25 29 0
-2 -10 -12 14 24 -25 26 0
7 10 16 17 -21 24 25 0
5 -10 -12 13 -14 23 29 0
8 -12 -16 -18 -19 -26 -27 0
1 -4 7 8 19 -20 -30 0
-3 -8 17 -20 21 -22 -23 0
2 -4 -17 -20 24 -27 29 0
12 -15 -20 21 -23 25 -30 0
3 -4 8 10 14 -25 27 0
2 4 -11 -19 20 -21 30 0
-8 -13 18 -20 21 -25 -30 0
-3 -10 11 -16 -24 -29 -30 0
2 6 7 -8 13 19 21 0
1 6 -15 17 -21 23 -28 0
1 4 -9 14 -15 -23 29 0
-1 2 -16 -17 -18 25 29 0
4 -13 -16 18 26 28 -29 0
1 -2 8 -20 23 26 -30 0
4 -8 -18 23 26 27 -29 0
2 6 14 19 20 25 -26 0
-9 11 -15 -16 17 -21 -23 0
-3 11 12 22 -24 -28 30 0
2 -5 12 18 20 -23 29 0
-4 11 12 -17 -24 25 28 0
7 -8 -9 11 12 -21 -27 0
-5 12 -19 21 22 -24 -27 0
5 6 10 17 -19 22 -29 0
-6 8 -10 17 21 -29 -30 0
-4 5 -10 -17 -18 23 -30 0
3 4 -7 -15 22 -23 -30 0
2 -8 10 22 24 -27 -29 0
5 6 -8 16 -21 -27 -28 0
2 -3 7 18 23 -26 27 0
5 8 10 15 16 26 30 0
-1 -3 -7 -10 -15 20 -27 0
6 -7 12 -13 14 20 29 0
5 8 9 -14 20 22 28 0
-1 -5 7 -9 15 -26 29 0
-5 8 -9 -10 -21 -22 27 0
-4 10 -14 15 -25 26 29 0
2 -3 -9 10 -13 16 -20 0
-4 7 11 18 21 -22 -23 0
2 3 -7 -12 14 23 -30 0
-5 -13 15 17 -25 28 30 0
-5 -7 -17 18 21 -26 -29 0
1 3 4 -6 -8 22 29 0
-3 -12 13 15 -16 -26 -28 0
-6 -13 -14 -23 24 -27 -30 0
-3 -6 9 -12 14 19 26 0
-2 7 -8 -21 -24 27 -28 0
9 13 -16 -21 22 25 26 0
-10 15 -16 -17 -21 28 -29 0
2 -7 -10 -12 13 19 -24 0
2 3 -7 -8 19 28 30 0
2 7 11 13 -14 -15 -29 0
3 -7 13 15 20 24 -30 0
4 -10 13 14 -17 18 -27 0
-3 4 8 15 -22 -26 -28 0
-3 5 -20 -25 27 -28 29 0
10 -17 21 -22 -24 -25 27 0
3 4 5 -9 -12 -23 27 0
-3 -5 16 21 -23 -28 30 0
-1 -2 3 -6 9 -19 -28 0
10 -15 -23 24 -26 -27 29 0
4 -12 18 -20 -25 -27 -29 0
-1 11 12 -13 -20 -21 26 0
-4 6 -10 -16 24 28 29 0
-1 -5 -9 -20 -22 23 25 0
1 8 -13 23 24 26 29 0
6 -14 18 19 24 27 30 0
-3 -5 6 -9 14 15 -30 0
2 -6 -7 -10 -18 21 27 0
-1 2 5 6 14 23 26 0
-3 -16 -19 -22 23 24 -25 0
-1 2 -3 -23 -25 26 30 0
1 -3 11 -12 -18 25 -26 0
3 4 -9 -12 17 20 -29 0
1 -7 11 -17 18 -22 -29 0
3 11 15 -20 -22 25 26 0
-1 -3 -4 9 -10 -13 14 0
-1 -7 14 -15 16 17 24 0
-1 3 -4 9 10 -18 -30 0
-7 11 12 13 -17 19 -29 0
-1 6 -11 -13 16 -20 -26 0
-7 16 -22 -23 27 29 30 0
6 -12 -13 -22 23 -27 -30 0
4 6 19 24 -27 29 -30 0
2 9 -10 -12 -15 -16 28 0
-5 -6 7 -12 -16 -17 -26 0
-7 -8 -14 16 -20 25 28 0
6 -8 15 -20 -22 28 30 0
3 7 9 10 19 -21 -30 0
-3 -4 -10 11 -17 -20 -23 0
-1 -3 14 -18 20 -22 27 0
-3 11 14 -21 -22 25 -26 0
4 5 11 19 20 -22 23 0
-1 8 10 17 -18 19 23 0
10 11 -14 -19 24 27 28 0
1 -2 -13 -17 -20 -24 -26 0
-2 -3 5 9 -14 -20 -26 0
5 -8 -15 -16 -20 -22 30 0
-2 9 -14 16 -21 26 -29 0
-2 -5 -7 -13 14 -25 28 0
7 9 -12 14 23 -25 28 0
-4 -6 -11 -16 21 23 25 0
1 6 -10 -13 14 -18 -27 0
9 13 15 22 -24 -28 -29 0
10 -12 13 -14 -17 -26 -27 0
1 -4 -10 16 18 26 -28 0
1 3 -9 21 23 24 -26 0
4 6 8 10 11 -17 28 0
1 -9 -14 17 -22 23 -24 0
3 -6 -8 13 -14 -18 -27 0
2 8 17 18 -23 -24 -26 0
6 8 11 -14 16 -19 -22 0
-6 -11 14 -15 -17 20 -24 0
-5 9 -10 -11 -19 -21 27 0
-1 15 17 20 -24 -27 -30 0
-4 -8 -15 -18 -23 -26 -30 0
-6 16 17 -22 25 26 28 0
9 11 -18 -21 -22 24 26 0
2 -3 -12 -13 -19 20 -23 0
-2 4 5 8 -10 -23 25 0
-4 -6 -18 19 -22 28 30 0
-3 -7 9 11 -22 25 -29 0
7 -13 -18 19 -21 -27 -29 0
-2 -7 8 -13 -14 21 22 0
4 5 -7 9 -13 14 30 0
-6 11 -15 17 -19 -21 30 0
1 -5 9 -16 23 25 -27 0
-4 21 22 23 24 -25 -26 0
-4 -5 10 -13 16 -17 -26 0
-2 4 -5 10 13 14 26 0
-2 12 15 -16 -22 23 -27 0
5 -6 7 16 -20 21 -24 0
-2 -3 -9 -14 15 -18 20 0
-3 -4 5 6 9 -16 -25 0
-4 6 8 15 -17 19 30 0
-3 -8 -9 11 -14 -18 24 0
-4 -7 -10 13 14 -15 -18 0
2 -4 13 -14 16 -18 21 0
-3 -4 10 -13 20 -23 -27 0
-16 -18 19 -24 26 -27 -29 0
7 10 -16 -19 24 26 -27 0
-5 7 -10 -20 21 -22 27 0
6 9 16 18 20 -25 26 0
8 9 11 14 22 23 25 0
1 -3 10 12 -13 -23 -28 0
6 12 -16 18 -19 -23 -28 0
4 6 -14 -16 -23 24 -26 0
-2 -10 -21 25 -26 27 30 0
1 10 14 20 -23 -28 30 0
-4 8 11 15 -18 19 29 0
-6 7 -13 19 23 -25 -29 0
-1 4 -11 -16 20 29 30 0
-2 -8 -12 13 -21 25 -26 0
-2 -6 10 -21 24 26 -30 0
3 -6 10 -21 -24 25 -29 0
2 4 11 -12 -21 -24 30 0
3 -5 6 8 -13 -18 30 0
-4 -5 -7 -9 -12 -14 19 0
-6 -7 -8 -11 14 21 -29 0
-2 -7 10 12 -23 25 -27 0
-1 -2 3 4 5 10 -29 0
5 8 11 12 -17 -24 -30 0
9 -13 -15 -19 21 22 27 0
-4 -7 -13 17 -19 -24 -30 0
-5 -6 -8 -9 13 15 -18 0
1 -3 4 -7 -16 19 27 0
5 10 11 -12 14 -16 -24 0
-7 8 23 -24 25 -28 -29 0
1 7 15 -17 19 23 -28 0
-1 -12 13 14 -24 25 28 0
10 -12 -14 15 19 28 30 0
4 -9 -11 13 20 23 -24 0
1 -4 -15 -21 -24 25 30 0
-11 -13 17 19 -22 -29 -30 0
2 4 7 -17 23 -26 -28 0
1 -10 -14 18 -25 -26 -29 0
4 -5 8 -14 17 -18 24 0
6 -15 21 22 23 -26 28 0
1 -7 10 20 -25 28 30 0
-3 4 14 15 18 -27 30 0
15 18 22 -23 -24 25 30 0
5 -7 11 19 -20 21 24 0
2 15 21 -22 -23 26 -30 0
2 8 -11 -12 -14 26 27 0
-2 -11 -12 14 16 24 -30 0
-3 6 -8 -11 14 -21 -25 0
-3 4 5 -6 -8 12 -25 0
2 4 -7 -8 10 12 -15 0
10 -11 -15 -18 -26 28 -29 0
-9 -11 -17 22 -25 28 30 0
5 9 11 16 19 -27 -28 0
-6 -11 -12 -14 -16 20 -28 0
1 -2 -4 5 -7 19 24 0
-1 -4 12 -14 -21 24 26 0
3 6 9 10 14 20 23 0
-1 -4 15 18 -20 23 -28 0
-4 6 -10 -11 21 23 -25 0
2 5 11 -18 23 -28 -30 0
4 -8 -13 -15 16 -20 25 0
4 -6 10 -16 19 22 25 0
6 -7 -16 21 24 25 27 0
9 -11 -16 22 -27 28 29 0
-7 -10 -12 -15 -19 -23 27 0
4 10 -11 17 -20 24 30 0
2 4 6 -20 -24 -28 -29 0
-3 11 12 -22 23 -25 29 0
-3 -6 12 -21 -26 28 30 0
-4 9 10 -15 19 27 28 0
4 19 -24 -25 -26 -27 28 0
5 -10 13 -18 20 22 -24 0
3 4 8 -11 13 15 -17 0
-1 3 -11 -19 -22 27 29 0
-1 4 6 -7 -16 19 23 0
4 8 9 17 23 -27 -29 0
-1 -4 6 -7 13 17 25 0
-6 -17 -19 -20 -21 22 -25 0
-1 -5 -11 13 -17 21 25 0
2 -4 -12 -15 -27 28 29 0
-1 5 -7 8 24 -28 30 0
4 -10 -19 -20 -22 28 -29 0
2 5 13 25 26 -27 -30 0
-4 -5 -6 8 17 19 27 0
-3 -7 10 -11 -14 20 -25 0
1 4 5 6 -13 -18 30 0
-4 -5 6 12 -21 27 28 0
